\ This file was automatically generated by Zimpl
\ param name := "burma14Distances.txt";
\ param n := read name as "1n" use 1;
\ set V := { 1..n };
\ set E := { <i, j> in V cross V with i < j };
\ var x[E] binary;
\ param d[E] := read name as "<1n, 2n> 3n" skip 1;
\ minimize tour_length:   sum <i,j> in E : d[i,j] * x[i,j];
\ subto degree:   forall <v> in V do     sum <v,j> in E : x[v,j]  +  sum <i,v> in E : x[i,v] == 2;
\Problem name: distances.zpl
Minimize
 tour_length:  +153 x#1#2 +510 x#1#3 +706 x#1#4 +966 x#1#5 +581 x#1#6 +455 x#1#7
  +70 x#1#8 +160 x#1#9 +372 x#1#10 +157 x#1#11 +567 x#1#12 +342 x#1#13
  +398 x#1#14 +422 x#2#3 +664 x#2#4 +997 x#2#5 +598 x#2#6 +507 x#2#7
  +197 x#2#8 +311 x#2#9 +479 x#2#10 +310 x#2#11 +581 x#2#12 +417 x#2#13
  +376 x#2#14 +289 x#3#4 +744 x#3#5 +390 x#3#6 +437 x#3#7 +491 x#3#8
  +645 x#3#9 +880 x#3#10 +618 x#3#11 +374 x#3#12 +455 x#3#13 +211 x#3#14
  +491 x#4#5 +265 x#4#6 +410 x#4#7 +664 x#4#8 +804 x#4#9 +1070 x#4#10
  +768 x#4#11 +259 x#4#12 +499 x#4#13 +310 x#4#14 +400 x#5#6 +514 x#5#7
  +902 x#5#8 +990 x#5#9 +1261 x#5#10 +947 x#5#11 +418 x#5#12 +635 x#5#13
  +636 x#5#14 +168 x#6#7 +522 x#6#8 +634 x#6#9 +910 x#6#10 +593 x#6#11
  +19 x#6#12 +284 x#6#13 +239 x#6#14 +389 x#7#8 +482 x#7#9 +757 x#7#10
  +439 x#7#11 +163 x#7#12 +124 x#7#13 +232 x#7#14 +154 x#8#9 +406 x#8#10
  +133 x#8#11 +508 x#8#12 +273 x#8#13 +355 x#8#14 +276 x#9#10 +43 x#9#11
  +623 x#9#12 +358 x#9#13 +498 x#9#14 +318 x#10#11 +898 x#10#12 +633 x#10#13
  +761 x#10#14 +582 x#11#12 +315 x#11#13 +464 x#11#14 +275 x#12#13 +221 x#12#14
  +247 x#13#14
Subject to
 degree_1:
  + x#1#14 + x#1#13 + x#1#12 + x#1#11 + x#1#10 + x#1#9
  + x#1#8 + x#1#7 + x#1#6 + x#1#5 + x#1#4 + x#1#3
  + x#1#2 = 2
 degree_2:
  + x#1#2 + x#2#14 + x#2#13 + x#2#12 + x#2#11 + x#2#10
  + x#2#9 + x#2#8 + x#2#7 + x#2#6 + x#2#5 + x#2#4
  + x#2#3 = 2
 degree_3:
  + x#2#3 + x#1#3 + x#3#14 + x#3#13 + x#3#12 + x#3#11
  + x#3#10 + x#3#9 + x#3#8 + x#3#7 + x#3#6 + x#3#5
  + x#3#4 = 2
 degree_4:
  + x#3#4 + x#2#4 + x#1#4 + x#4#14 + x#4#13 + x#4#12
  + x#4#11 + x#4#10 + x#4#9 + x#4#8 + x#4#7 + x#4#6
  + x#4#5 = 2
 degree_5:
  + x#4#5 + x#3#5 + x#2#5 + x#1#5 + x#5#14 + x#5#13
  + x#5#12 + x#5#11 + x#5#10 + x#5#9 + x#5#8 + x#5#7
  + x#5#6 = 2
 degree_6:
  + x#5#6 + x#4#6 + x#3#6 + x#2#6 + x#1#6 + x#6#14
  + x#6#13 + x#6#12 + x#6#11 + x#6#10 + x#6#9 + x#6#8
  + x#6#7 = 2
 degree_7:
  + x#6#7 + x#5#7 + x#4#7 + x#3#7 + x#2#7 + x#1#7
  + x#7#14 + x#7#13 + x#7#12 + x#7#11 + x#7#10 + x#7#9
  + x#7#8 = 2
 degree_8:
  + x#7#8 + x#6#8 + x#5#8 + x#4#8 + x#3#8 + x#2#8
  + x#1#8 + x#8#14 + x#8#13 + x#8#12 + x#8#11 + x#8#10
  + x#8#9 = 2
 degree_9:
  + x#8#9 + x#7#9 + x#6#9 + x#5#9 + x#4#9 + x#3#9
  + x#2#9 + x#1#9 + x#9#14 + x#9#13 + x#9#12 + x#9#11
  + x#9#10 = 2
 degree_10:
  + x#9#10 + x#8#10 + x#7#10 + x#6#10 + x#5#10 + x#4#10
  + x#3#10 + x#2#10 + x#1#10 + x#10#14 + x#10#13 + x#10#12
  + x#10#11 = 2
 degree_11:
  + x#10#11 + x#9#11 + x#8#11 + x#7#11 + x#6#11 + x#5#11
  + x#4#11 + x#3#11 + x#2#11 + x#1#11 + x#11#14 + x#11#13
  + x#11#12 = 2
 degree_12:
  + x#11#12 + x#10#12 + x#9#12 + x#8#12 + x#7#12 + x#6#12
  + x#5#12 + x#4#12 + x#3#12 + x#2#12 + x#1#12 + x#12#14
  + x#12#13 = 2
 degree_13:
  + x#12#13 + x#11#13 + x#10#13 + x#9#13 + x#8#13 + x#7#13
  + x#6#13 + x#5#13 + x#4#13 + x#3#13 + x#2#13 + x#1#13
  + x#13#14 = 2
 degree_14:
  + x#13#14 + x#12#14 + x#11#14 + x#10#14 + x#9#14 + x#8#14
  + x#7#14 + x#6#14 + x#5#14 + x#4#14 + x#3#14 + x#2#14
  + x#1#14 = 2
Bounds
 0 <= x#1#2 <= 1
 0 <= x#1#3 <= 1
 0 <= x#1#4 <= 1
 0 <= x#1#5 <= 1
 0 <= x#1#6 <= 1
 0 <= x#1#7 <= 1
 0 <= x#1#8 <= 1
 0 <= x#1#9 <= 1
 0 <= x#1#10 <= 1
 0 <= x#1#11 <= 1
 0 <= x#1#12 <= 1
 0 <= x#1#13 <= 1
 0 <= x#1#14 <= 1
 0 <= x#2#3 <= 1
 0 <= x#2#4 <= 1
 0 <= x#2#5 <= 1
 0 <= x#2#6 <= 1
 0 <= x#2#7 <= 1
 0 <= x#2#8 <= 1
 0 <= x#2#9 <= 1
 0 <= x#2#10 <= 1
 0 <= x#2#11 <= 1
 0 <= x#2#12 <= 1
 0 <= x#2#13 <= 1
 0 <= x#2#14 <= 1
 0 <= x#3#4 <= 1
 0 <= x#3#5 <= 1
 0 <= x#3#6 <= 1
 0 <= x#3#7 <= 1
 0 <= x#3#8 <= 1
 0 <= x#3#9 <= 1
 0 <= x#3#10 <= 1
 0 <= x#3#11 <= 1
 0 <= x#3#12 <= 1
 0 <= x#3#13 <= 1
 0 <= x#3#14 <= 1
 0 <= x#4#5 <= 1
 0 <= x#4#6 <= 1
 0 <= x#4#7 <= 1
 0 <= x#4#8 <= 1
 0 <= x#4#9 <= 1
 0 <= x#4#10 <= 1
 0 <= x#4#11 <= 1
 0 <= x#4#12 <= 1
 0 <= x#4#13 <= 1
 0 <= x#4#14 <= 1
 0 <= x#5#6 <= 1
 0 <= x#5#7 <= 1
 0 <= x#5#8 <= 1
 0 <= x#5#9 <= 1
 0 <= x#5#10 <= 1
 0 <= x#5#11 <= 1
 0 <= x#5#12 <= 1
 0 <= x#5#13 <= 1
 0 <= x#5#14 <= 1
 0 <= x#6#7 <= 1
 0 <= x#6#8 <= 1
 0 <= x#6#9 <= 1
 0 <= x#6#10 <= 1
 0 <= x#6#11 <= 1
 0 <= x#6#12 <= 1
 0 <= x#6#13 <= 1
 0 <= x#6#14 <= 1
 0 <= x#7#8 <= 1
 0 <= x#7#9 <= 1
 0 <= x#7#10 <= 1
 0 <= x#7#11 <= 1
 0 <= x#7#12 <= 1
 0 <= x#7#13 <= 1
 0 <= x#7#14 <= 1
 0 <= x#8#9 <= 1
 0 <= x#8#10 <= 1
 0 <= x#8#11 <= 1
 0 <= x#8#12 <= 1
 0 <= x#8#13 <= 1
 0 <= x#8#14 <= 1
 0 <= x#9#10 <= 1
 0 <= x#9#11 <= 1
 0 <= x#9#12 <= 1
 0 <= x#9#13 <= 1
 0 <= x#9#14 <= 1
 0 <= x#10#11 <= 1
 0 <= x#10#12 <= 1
 0 <= x#10#13 <= 1
 0 <= x#10#14 <= 1
 0 <= x#11#12 <= 1
 0 <= x#11#13 <= 1
 0 <= x#11#14 <= 1
 0 <= x#12#13 <= 1
 0 <= x#12#14 <= 1
 0 <= x#13#14 <= 1
General
 x#1#2
 x#1#3
 x#1#4
 x#1#5
 x#1#6
 x#1#7
 x#1#8
 x#1#9
 x#1#10
 x#1#11
 x#1#12
 x#1#13
 x#1#14
 x#2#3
 x#2#4
 x#2#5
 x#2#6
 x#2#7
 x#2#8
 x#2#9
 x#2#10
 x#2#11
 x#2#12
 x#2#13
 x#2#14
 x#3#4
 x#3#5
 x#3#6
 x#3#7
 x#3#8
 x#3#9
 x#3#10
 x#3#11
 x#3#12
 x#3#13
 x#3#14
 x#4#5
 x#4#6
 x#4#7
 x#4#8
 x#4#9
 x#4#10
 x#4#11
 x#4#12
 x#4#13
 x#4#14
 x#5#6
 x#5#7
 x#5#8
 x#5#9
 x#5#10
 x#5#11
 x#5#12
 x#5#13
 x#5#14
 x#6#7
 x#6#8
 x#6#9
 x#6#10
 x#6#11
 x#6#12
 x#6#13
 x#6#14
 x#7#8
 x#7#9
 x#7#10
 x#7#11
 x#7#12
 x#7#13
 x#7#14
 x#8#9
 x#8#10
 x#8#11
 x#8#12
 x#8#13
 x#8#14
 x#9#10
 x#9#11
 x#9#12
 x#9#13
 x#9#14
 x#10#11
 x#10#12
 x#10#13
 x#10#14
 x#11#12
 x#11#13
 x#11#14
 x#12#13
 x#12#14
 x#13#14
End
